714831
436802
316854
284401
611739
182304
569139
192697
248588
241954
742488
188113
593363
527415
300310
416218
840857
498419
436448
933601
875490
125832
845027
68012
79311
452451
165972
314534
685949
617189
892001
256548
381772
905724
794953
944723
221562
494814
630343
621952
756973
135970
517674
307076
761679
715387
195072
942794
52563
5137
358064
464319
604119
627773
210599
405140
994210
287265
908203
863667
318348
40867
224907
756796
145789
917892
65015
390714
535501
926112
381996
603559
349515
263172
523335
835288
577945
408615
791419
407238
408757
872711
564446
969211
994642
785314
604318
289430
942692
665101
340176
855610
457147
104627
258217
394777
662023
178542
570821
935576
